
Gurobi 8.1.1 (win64, Python) logging started 02/10/21 11:09:03

Academic license - for non-commercial use only
Read LP format model from file C:\Users\JONASF~1\AppData\Local\Temp\tmpym9yam9a.pyomo.lp
Reading time = 6.36 seconds
x597315: 553395 rows, 562177 columns, 1642537 nonzeros
Changed value of parameter mipgap to 0.025
   Prev: 0.0001  Min: 0.0  Max: 1e+100  Default: 0.0001
Optimize a model with 553395 rows, 562177 columns and 1642537 nonzeros
Variable types: 483121 continuous, 79056 integer (79056 binary)
Coefficient statistics:
  Matrix range     [1e-01, 3e+02]
  Objective range  [1e-02, 8e+07]
  Bounds range     [1e+00, 2e+05]
  RHS range        [8e-03, 2e+04]
Presolve removed 246252 rows and 281368 columns (presolve time = 5s) ...
Presolve removed 264022 rows and 299136 columns (presolve time = 10s) ...
Presolve removed 264118 rows and 299238 columns (presolve time = 16s) ...
Presolve removed 264118 rows and 299238 columns
Presolve time: 15.57s
Presolved: 289277 rows, 262939 columns, 929631 nonzeros
Variable types: 183942 continuous, 78997 integer (78997 binary)

Root simplex log...

Iteration    Objective       Primal Inf.    Dual Inf.      Time
       0   -1.4631951e+08   5.547576e+06   0.000000e+00     26s
   46564   -8.4149523e+07   2.610215e+05   0.000000e+00     30s
   66520   -8.3242640e+07   6.744264e+05   0.000000e+00     37s
   73172   -8.3132993e+07   2.243227e+06   0.000000e+00     41s
   79343   -8.3020340e+07   1.910856e+06   0.000000e+00     47s
   84708   -8.2937579e+07   1.777823e+06   0.000000e+00     52s
   90420   -8.2884449e+07   2.105124e+06   0.000000e+00     56s
   94482   -8.2843281e+07   1.542119e+06   0.000000e+00     60s
  100257   -8.2812724e+07   2.813508e+07   0.000000e+00     66s
  102837   -8.2812724e+07   1.262384e+07   0.000000e+00     71s
  109975   -8.1780561e+07   3.852557e+06   0.000000e+00     75s
  115070   -8.1283618e+07   6.017230e+06   0.000000e+00     81s
  120261   -8.1199284e+07   8.564670e+05   0.000000e+00     86s
  122743   -8.1186142e+07   4.790444e+05   0.000000e+00     90s
  131646   -8.1067074e+07   2.981070e+05   0.000000e+00     97s
  138159   -8.1044955e+07   3.576928e+05   0.000000e+00    101s
  146009   -8.0940125e+07   7.908517e+05   0.000000e+00    106s
  154981   -8.0887705e+07   5.348416e+05   0.000000e+00    113s
  160270   -8.0875078e+07   4.488317e+05   0.000000e+00    120s
  165024   -8.0860823e+07   1.484072e+05   0.000000e+00    132s
  169189   -8.0808972e+07   1.769366e+05   0.000000e+00    143s
  171391   -8.0769497e+07   3.672325e+05   0.000000e+00    149s
  172367   -8.0755828e+07   2.480033e+05   0.000000e+00    150s
  176524   -8.0533280e+07   2.722634e+06   0.000000e+00    155s
  179021   -8.0429782e+07   3.926989e+06   0.000000e+00    160s
  181637   -8.0370556e+07   7.306157e+04   0.000000e+00    166s
  183444   -8.0362527e+07   9.287246e+06   0.000000e+00    171s
  185200   -8.0353224e+07   5.300800e+07   0.000000e+00    176s
  186578   -8.0348655e+07   4.195626e+05   0.000000e+00    181s
  187286   -8.0346276e+07   2.823758e+05   0.000000e+00    185s
  188804   -8.0341478e+07   3.880496e+06   0.000000e+00    191s
  190291   -8.0336911e+07   2.322090e+05   0.000000e+00    196s
  191664   -8.0332638e+07   1.561362e+07   0.000000e+00    200s
  194598   -8.0323695e+07   2.177686e+05   0.000000e+00    206s
  196366   -8.0320370e+07   1.522258e+06   0.000000e+00    212s
  196828   -8.0319374e+07   4.443040e+06   0.000000e+00    216s
  198294   -8.0316192e+07   6.702509e+04   0.000000e+00    222s
  199573   -8.0314150e+07   3.980970e+05   0.000000e+00    230s
  200890   -8.0311983e+07   1.484918e+06   0.000000e+00    237s
  201993   -8.0309499e+07   2.158176e+06   0.000000e+00    242s
  202496   -8.0308713e+07   3.788970e+06   0.000000e+00    246s
  202834   -8.0308288e+07   4.444118e+06   0.000000e+00    250s
  203757   -8.0306731e+07   1.267108e+05   0.000000e+00    257s
  204878   -8.0305272e+07   7.896396e+05   0.000000e+00    262s
  205844   -8.0303607e+07   3.563441e+06   0.000000e+00    267s
  207565   -8.0301768e+07   4.989801e+04   0.000000e+00    270s
  209435   -8.0300270e+07   3.820664e+04   0.000000e+00    277s
  210576   -8.0299631e+07   1.388986e+05   0.000000e+00    282s
  210988   -8.0299537e+07   2.997228e+04   0.000000e+00    286s
  212039   -8.0299468e+07   0.000000e+00   0.000000e+00    291s

Root relaxation: objective -8.029947e+07, 212039 iterations, 265.72 seconds
Total elapsed time = 316.86s
Total elapsed time = 326.40s
Total elapsed time = 336.63s
Total elapsed time = 347.43s

    Nodes    |    Current Node    |     Objective Bounds      |     Work
 Expl Unexpl |  Obj  Depth IntInf | Incumbent    BestBd   Gap | It/Node Time

     0     0 -8.030e+07    0 9247          - -8.030e+07      -     -  361s
H    0     0                    -6.86366e+07 -8.030e+07  17.0%     -  382s
H    0     0                    -7.51404e+07 -8.030e+07  6.87%     -  405s
H    0     0                    -7.51404e+07 -8.030e+07  6.87%     -  427s
     0     0 -8.029e+07    0 11711 -7.514e+07 -8.029e+07  6.86%     -  483s
     0     0 -8.029e+07    0 12441 -7.514e+07 -8.029e+07  6.85%     -  600s
     0     0 -8.028e+07    0 11986 -7.514e+07 -8.028e+07  6.84%     -  689s
     0     0 -8.027e+07    0 11302 -7.514e+07 -8.027e+07  6.83%     -  814s
     0     0 -8.027e+07    0 11266 -7.514e+07 -8.027e+07  6.83%     -  819s
     0     0 -8.027e+07    0 11262 -7.514e+07 -8.027e+07  6.83%     -  822s
     0     0 -8.027e+07    0 11271 -7.514e+07 -8.027e+07  6.83%     -  824s
     0     0 -8.021e+07    0 14320 -7.514e+07 -8.021e+07  6.74%     -  989s
     0     0 -8.013e+07    0 17312 -7.514e+07 -8.013e+07  6.64%     - 1188s
     0     0 -8.007e+07    0 17440 -7.514e+07 -8.007e+07  6.56%     - 1263s
     0     0 -8.005e+07    0 18246 -7.514e+07 -8.005e+07  6.53%     - 1316s
     0     0 -8.004e+07    0 20015 -7.514e+07 -8.004e+07  6.53%     - 1380s
     0     0 -8.004e+07    0 20938 -7.514e+07 -8.004e+07  6.52%     - 1425s
     0     0 -8.004e+07    0 20933 -7.514e+07 -8.004e+07  6.52%     - 1434s
     0     0 -8.004e+07    0 20938 -7.514e+07 -8.004e+07  6.52%     - 1439s
     0     0 -8.004e+07    0 20948 -7.514e+07 -8.004e+07  6.52%     - 1442s
     0     0 -7.992e+07    0 20408 -7.514e+07 -7.992e+07  6.36%     - 1628s
     0     0 -7.980e+07    0 19864 -7.514e+07 -7.980e+07  6.20%     - 1853s
     0     0 -7.975e+07    0 20121 -7.514e+07 -7.975e+07  6.13%     - 1930s
     0     0 -7.973e+07    0 20264 -7.514e+07 -7.973e+07  6.11%     - 1976s
     0     0 -7.972e+07    0 20861 -7.514e+07 -7.972e+07  6.10%     - 2011s
     0     0 -7.972e+07    0 21471 -7.514e+07 -7.972e+07  6.10%     - 2043s
     0     0 -7.972e+07    0 21373 -7.514e+07 -7.972e+07  6.10%     - 2056s
     0     0 -7.972e+07    0 21426 -7.514e+07 -7.972e+07  6.10%     - 2063s
     0     0 -7.948e+07    0 18917 -7.514e+07 -7.948e+07  5.77%     - 2293s
H    0     0                    -7.64148e+07 -7.948e+07  4.01%     - 2343s
H    0     0                    -7.64161e+07 -7.948e+07  4.01%     - 2446s
     0     0 -7.940e+07    0 18312 -7.642e+07 -7.940e+07  3.90%     - 2525s
     0     0 -7.938e+07    0 18799 -7.642e+07 -7.938e+07  3.88%     - 2564s
     0     0 -7.937e+07    0 19035 -7.642e+07 -7.937e+07  3.87%     - 2599s
     0     0 -7.937e+07    0 19306 -7.642e+07 -7.937e+07  3.86%     - 2629s
     0     0 -7.937e+07    0 19536 -7.642e+07 -7.937e+07  3.86%     - 2642s
     0     0 -7.937e+07    0 19708 -7.642e+07 -7.937e+07  3.86%     - 2657s
     0     0 -7.926e+07    0 17869 -7.642e+07 -7.926e+07  3.72%     - 2881s
H    0     0                    -7.66082e+07 -7.926e+07  3.46%     - 2899s
H    0     0                    -7.66084e+07 -7.926e+07  3.46%     - 3021s
     0     0 -7.923e+07    0 17759 -7.661e+07 -7.923e+07  3.42%     - 3135s
     0     0 -7.922e+07    0 17774 -7.661e+07 -7.922e+07  3.40%     - 3207s
     0     0 -7.921e+07    0 17999 -7.661e+07 -7.921e+07  3.40%     - 3271s
     0     0 -7.921e+07    0 18219 -7.661e+07 -7.921e+07  3.40%     - 3301s
     0     0 -7.921e+07    0 18400 -7.661e+07 -7.921e+07  3.40%     - 3313s

Gurobi 8.1.1 (win64, Python) logging started 02/10/21 12:07:56

Academic license - for non-commercial use only
Read LP format model from file C:\Users\JONASF~1\AppData\Local\Temp\tmp_9a1g00_.pyomo.lp
Reading time = 12.56 seconds
x579747: 535825 rows, 544609 columns, 1607399 nonzeros
Changed value of parameter mipgap to 0.05
   Prev: 0.0001  Min: 0.0  Max: 1e+100  Default: 0.0001
Optimize a model with 535825 rows, 544609 columns and 1607399 nonzeros
Variable types: 465553 continuous, 79056 integer (79056 binary)
Coefficient statistics:
  Matrix range     [1e-01, 3e+02]
  Objective range  [1e-02, 8e+07]
  Bounds range     [1e+00, 2e+05]
  RHS range        [8e-03, 1e+04]
Presolve removed 184555 rows and 246015 columns
Presolve time: 2.72s

Explored 0 nodes (0 simplex iterations) in 5.41 seconds
Thread count was 1 (of 8 available processors)

Solution count 0

Model is infeasible or unbounded
Best objective -, best bound -, gap -
     0     0 -7.912e+07    0 16380 -7.661e+07 -7.912e+07  3.28%     - 3681s
H    0     0                    -7.66523e+07 -7.912e+07  3.22%     - 3689s
     0     0 -7.911e+07    0 16129 -7.665e+07 -7.911e+07  3.20%     - 3859s
     0     0 -7.910e+07    0 16473 -7.665e+07 -7.910e+07  3.20%     - 3887s

Gurobi 8.1.1 (win64, Python) logging started 02/10/21 12:14:11

Academic license - for non-commercial use only
     0     0 -7.910e+07    0 16717 -7.665e+07 -7.910e+07  3.20%     - 3910s
Read LP format model from file C:\Users\JONASF~1\AppData\Local\Temp\tmppzio1hbr.pyomo.lp
Reading time = 9.93 seconds
x579747: 535827 rows, 544609 columns, 1607401 nonzeros
Changed value of parameter mipgap to 0.05
   Prev: 0.0001  Min: 0.0  Max: 1e+100  Default: 0.0001
Optimize a model with 535827 rows, 544609 columns and 1607401 nonzeros
Variable types: 465553 continuous, 79056 integer (79056 binary)
Coefficient statistics:
  Matrix range     [1e-01, 3e+02]
  Objective range  [1e-02, 8e+07]
  Bounds range     [1e+00, 2e+05]
  RHS range        [8e-05, 2e+04]
Presolve removed 184557 rows and 246017 columns
Presolve time: 1.56s

Explored 0 nodes (0 simplex iterations) in 3.42 seconds
Thread count was 1 (of 8 available processors)

Solution count 0

Model is infeasible or unbounded
Best objective -, best bound -, gap -
     0     0 -7.910e+07    0 16886 -7.665e+07 -7.910e+07  3.20%     - 3927s

Gurobi 8.1.1 (win64, Python) logging started 02/10/21 12:19:27

Academic license - for non-commercial use only
     0     0 -7.907e+07    0 15843 -7.665e+07 -7.907e+07  3.15%     - 4227s
Read LP format model from file C:\Users\JONASF~1\AppData\Local\Temp\tmpldj0jvo2.pyomo.lp
Reading time = 11.77 seconds
x579747: 535825 rows, 544609 columns, 1607399 nonzeros
Changed value of parameter mipgap to 0.05
   Prev: 0.0001  Min: 0.0  Max: 1e+100  Default: 0.0001
Optimize a model with 535825 rows, 544609 columns and 1607399 nonzeros
Variable types: 465553 continuous, 79056 integer (79056 binary)
Coefficient statistics:
  Matrix range     [1e-01, 3e+02]
  Objective range  [1e-02, 8e+07]
  Bounds range     [1e+00, 2e+06]
  RHS range        [8e-03, 1e+05]
Presolve removed 184555 rows and 246017 columns
Presolve time: 1.68s

Explored 0 nodes (0 simplex iterations) in 3.66 seconds
Thread count was 1 (of 8 available processors)

Solution count 0

Model is infeasible or unbounded
Best objective -, best bound -, gap -
H    0     0                    -7.68237e+07 -7.907e+07  2.92%     - 4368s
H    0     0                    -7.68237e+07 -7.907e+07  2.92%     - 4479s
     0     0 -7.906e+07    0 15916 -7.682e+07 -7.906e+07  2.91%     - 4539s
     0     0 -7.906e+07    0 16206 -7.682e+07 -7.906e+07  2.91%     - 4596s
     0     0 -7.906e+07    0 16335 -7.682e+07 -7.906e+07  2.91%     - 4617s

Gurobi 8.1.1 (win64, Python) logging started 02/10/21 12:28:47

Academic license - for non-commercial use only
Read LP format model from file C:\Users\JONASF~1\AppData\Local\Temp\tmpnyh8i8_6.pyomo.lp
Reading time = 4.98 seconds
x421634: 377714 rows, 395281 columns, 1097965 nonzeros
Changed value of parameter mipgap to 0.05
   Prev: 0.0001  Min: 0.0  Max: 1e+100  Default: 0.0001
Optimize a model with 377714 rows, 395281 columns and 1097965 nonzeros
Variable types: 342577 continuous, 52704 integer (52704 binary)
Coefficient statistics:
  Matrix range     [1e-01, 3e+02]
  Objective range  [1e-02, 8e+07]
  Bounds range     [1e+00, 2e+05]
  RHS range        [8e-03, 2e+04]
Presolve removed 131810 rows and 184498 columns
Presolve time: 0.92s

Explored 0 nodes (0 simplex iterations) in 2.05 seconds
Thread count was 1 (of 8 available processors)

Solution count 0

Model is infeasible or unbounded
Best objective -, best bound -, gap -
     0     0 -7.904e+07    0 15409 -7.682e+07 -7.904e+07  2.88%     - 4836s
     0     0 -7.904e+07    0 15606 -7.682e+07 -7.904e+07  2.88%     - 4857s
     0     0 -7.904e+07    0 15733 -7.682e+07 -7.904e+07  2.88%     - 4872s
     0     0 -7.903e+07    0 15386 -7.682e+07 -7.903e+07  2.87%     - 5074s

Gurobi 8.1.1 (win64, Python) logging started 02/10/21 12:34:40

Academic license - for non-commercial use only
Read LP format model from file C:\Users\JONASF~1\AppData\Local\Temp\tmp2xii79sk.pyomo.lp
Reading time = 7.23 seconds
x430418: 377714 rows, 404065 columns, 1106749 nonzeros
Changed value of parameter mipgap to 0.05
   Prev: 0.0001  Min: 0.0  Max: 1e+100  Default: 0.0001
Optimize a model with 377714 rows, 404065 columns and 1106749 nonzeros
Variable types: 351361 continuous, 52704 integer (52704 binary)
Coefficient statistics:
  Matrix range     [1e-01, 3e+02]
  Objective range  [1e-02, 8e+07]
  Bounds range     [1e+00, 2e+05]
  RHS range        [8e-03, 2e+04]
Presolve removed 131810 rows and 184496 columns
Presolve time: 2.10s

Explored 0 nodes (0 simplex iterations) in 2.77 seconds
Thread count was 1 (of 8 available processors)

Solution count 0

Model is infeasible or unbounded
Best objective -, best bound -, gap -
